# Strimko Set 068
param n := 4;

# represent the different streams with integer 1..n
param streams: 1 2 3 4 :=
 1    1 2 2 4 
 2    2 1 4 2 
 3    3 4 1 3 
 4    4 3 3 1
;

param num_placed := 3;
param placed: 1 2 3 :=
  1  2 2 3 
  2  2 3 2 
  3  3 3 1
;
